sifdecoder -A pc64.lnx.gfo -st   PORTFL3

 Problem name: PORTFL3

 Double precision version will be formed

 The objective function uses 62 nonlinear groups
 
 There is 1 linear equality constraint
 
 There are 12 variables bounded from below and above 
 
 
 File successfully decoded
 CUTEST: tools (double precision version) compiled successfully
 CUTEst: ipopt (double precision version) compiled successfully

******************************************************************************
This program contains Ipopt, a library for large-scale nonlinear optimization.
 Ipopt is released as open source code under the Eclipse Public License (EPL).
         For more information visit http://projects.coin-or.org/Ipopt
******************************************************************************

This is Ipopt version trunk, running with linear solver ma57.

Number of nonzeros in equality constraint Jacobian...:       12
Number of nonzeros in inequality constraint Jacobian.:        0
Number of nonzeros in Lagrangian Hessian.............:       78

Total number of variables............................:       12
                     variables with only lower bounds:        0
                variables with lower and upper bounds:       12
                     variables with only upper bounds:        0
Total number of equality constraints.................:        1
Total number of inequality constraints...............:        0
        inequality constraints with only lower bounds:        0
   inequality constraints with lower and upper bounds:        0
        inequality constraints with only upper bounds:        0

iter    objective    inf_pr   inf_du lg(mu)  ||d||  lg(rg) alpha_du alpha_pr  ls
   0  3.9305994e-02 4.00e-10 2.28e-02  -1.0 0.00e+00    -  0.00e+00 0.00e+00   0
   1  3.9221360e-02 3.19e-16 1.39e-16  -1.7 1.72e-03    -  1.00e+00 1.00e+00f  1
   2  3.8878996e-02 9.71e-17 8.36e-03  -3.8 6.74e-03    -  9.62e-01 1.00e+00f  1
   3  3.4966946e-02 1.39e-16 3.62e-04  -3.8 1.32e-01    -  9.64e-01 1.00e+00f  1
   4  3.3213865e-02 1.39e-16 2.08e-03  -5.7 1.43e-01    -  6.38e-01 1.00e+00f  1
   5  3.2843258e-02 1.39e-16 1.51e-04  -5.7 2.48e-02    -  9.62e-01 1.00e+00f  1
   6  3.2765670e-02 2.22e-16 8.46e-18  -5.7 6.74e-03    -  1.00e+00 1.00e+00f  1
   7  3.2750001e-02 1.94e-16 5.26e-06  -8.6 3.54e-03    -  9.90e-01 1.00e+00f  1
   8  3.2749729e-02 5.55e-17 4.52e-06  -8.6 1.50e-03    -  9.73e-01 1.00e+00f  1
   9  3.2749724e-02 2.78e-17 2.55e-17  -8.6 2.75e-04    -  1.00e+00 1.00e+00h  1
iter    objective    inf_pr   inf_du lg(mu)  ||d||  lg(rg) alpha_du alpha_pr  ls
  10  3.2749714e-02 8.33e-17 1.13e-17  -9.0 1.20e-05    -  1.00e+00 1.00e+00h  1

Number of Iterations....: 10

                                   (scaled)                 (unscaled)
Objective...............:   3.2749714358100437e-02    3.2749714358100437e-02
Dual infeasibility......:   1.1266475187321064e-17    1.1266475187321064e-17
Constraint violation....:   8.3266726846886741e-17    8.3266726846886741e-17
Complementarity.........:   9.2521234643935678e-10    9.2521234643935678e-10
Overall NLP error.......:   9.2521234643935678e-10    9.2521234643935678e-10


Number of objective function evaluations             = 11
Number of objective gradient evaluations             = 11
Number of equality constraint evaluations            = 11
Number of inequality constraint evaluations          = 0
Number of equality constraint Jacobian evaluations   = 11
Number of inequality constraint Jacobian evaluations = 0
Number of Lagrangian Hessian evaluations             = 10
Total CPU secs in IPOPT (w/o function evaluations)   =      0.016
Total CPU secs in NLP function evaluations           =      0.005

EXIT: Optimal Solution Found.

************************ CUTEst statistics ************************


 Package used            :  IPOPT
 Problem                 :  PORTFL3   
 # variables             =              12
 # constraints           =               1
 # objective functions   =        0.2300000E+02
 # objective gradients   =        0.1200000E+02
 # objective Hessians    =        0.1100000E+02
 # Hessian-vector prdct  =        0.0000000E+00
 # constraints functions =        0.2400000E+02
 # constraints gradients =        0.1300000E+02
 # constraints Hessians  =        0.1100000E+02
 Exit code               =               0
 Final f                 =        3.2749714358100437D-02
 Bounds feasibility      =        0.0000000000000000D+00
 Set up time             =            0.01 seconds
 Solve time              =            0.08 seconds


******************************************************************

